&CONTROL
 calculation = 'scf'
 title = 'pmw'
 verbosity = 'high'
 wf_collect = .true
 prefix = 'pmw'
 pseudo_dir = '/home/sck/shafiro1/PSP/QE/lda/'
/

&SYSTEM
 ibrav = 0
 nat = 39
 ntyp = 4
 ecutrho = 400
 ecutwfc  = 50
 nbnd = 180
 occupations  =  'fixed'
 degauss  = 0.01
 smearing  = 'methfessel-paxton'
/

&ELECTRONS
 mixing_mode='local-TF'
 electron_maxstep  = 300
 conv_thr  = 1D-10
 diagonalization = 'david'
/

[ &IONS
 ion_dynamics  = 'bfgs'
 / ]

[ &CELL
 cell_dynamics  = 'bfgs'
 !cell_dofree = 'xyz'
 cell_dofree = 'shape'
 /]

ATOMIC_SPECIES
O   15.990   o_lda_v1.2.uspp.F.UPF
Mg  24.305   mg_lda_v1.4.uspp.F.UPF
Pb  207.20   pb_lda_v1.uspp.F.UPF
W   183.84   w_lda_v1.2.uspp.F.UPF

CELL_PARAMETERS (angstrom)
        8.0060000000         0.0000000000         0.0000000000
        0.0000000000         8.0060000000         0.0000000000
        0.0000000000         0.0000000000         8.0060000000

ATOMIC_POSITIONS (crystal)
Pb            0.0132655550        0.0060427910        0.0007406710    0   0   0
Pb            0.0148722080        0.0000146160        0.5070895750    0   0   0
Pb            0.0148600190        0.5000094410        0.0071411240    0   0   0
Pb            0.0133125030        0.5060318370        0.5006800420    0   0   0
Pb            0.5148719390        0.0231193070        0.0301299190    0   0   0
Pb            0.5132971110        0.0294359330        0.5242460230    0   0   0
Pb            0.5132941460        0.5294419570        0.0241523990    0   0   0
Pb            0.5148478980        0.5231295240        0.5301422840    0   0   0
Mg            0.2642936540        0.2646342690        0.2654296700    0   0   0
Mg            0.2642779090        0.7646430190        0.7654322290    0   0   0
Mg            0.7642931210        0.2646759140        0.7654411470    0   0   0
Mg            0.7642830910        0.7646679930        0.2654448210    0   0   0
W             0.2642773140        0.2646866040        0.7654509710    0   0   0
W             0.2642962030        0.7646887530        0.2654512760    0   0   0
W             0.7642972950        0.2646006640        0.2654238030    0   0   0
W             0.7643171370        0.7646040000        0.7654097420    0   0   0
O             0.2889166099        0.2704679025        0.5309067359
O             0.2908673209        0.7809046402        0.0286052686
O             0.2337091710        0.7428225824        0.5077964025
O             0.7928493700        0.2451833071        0.0292251646
O             0.7300844555        0.2850568924        0.5083483046
O             0.7318606169        0.7819798134        1.0037659062
O             0.7947053254        0.7395805025        0.5256360316
O             0.2993209703        1.0023798642        0.2899111599
O             0.2355972188        0.0250212484        0.7539595601
O             0.2293939262        0.5237015532        0.2514659145
O             0.2841463326        0.4971230916        0.8057690382
O             0.7318600448        0.0258777739        0.2888294486
O             0.7854303863        1.0039343333        0.7474488823
O             0.7956238651        0.5026401699        0.2538273515
O             0.7353948376        0.5247324758        0.7844247751
O             1.0019074468        0.2380527692        0.3007299263
O             0.0274635313        0.2929807155        0.7578508253
O             0.0268481394        0.8025719622        0.2480163822
O             1.0012363248        0.7427745828        0.7959687348
O             0.5239045662        0.2903167266        0.2371296144
O             0.4970697837        0.2418203457        0.8049337782
O             0.5017627788        0.7270094846        0.2917287362
O             0.5235746355        0.7812665890        0.7307196354

K_POINTS {automatic}
 4 4 4  0 0 0
