&CONTROL
 calculation = 'scf'
 title = 'pmw'
 verbosity = 'high'
 wf_collect = .true
 prefix = 'pmw'
 pseudo_dir = '/home/sck/shafiro1/PSP/QE/lda/'
/

&SYSTEM
 ibrav = 0
 nat = 39
 ntyp = 4
 ecutrho = 400
 ecutwfc  = 50
 nbnd = 180
 occupations  =  'fixed'
 degauss  = 0.01
 smearing  = 'methfessel-paxton'
/

&ELECTRONS
 mixing_mode='local-TF'
 electron_maxstep  = 300
 conv_thr  = 1D-10
 diagonalization = 'david'
/

[ &IONS
 ion_dynamics  = 'bfgs'
 / ]

[ &CELL
 cell_dynamics  = 'bfgs'
 !cell_dofree = 'xyz'
 cell_dofree = 'shape'
 /]

ATOMIC_SPECIES
O   15.990   o_lda_v1.2.uspp.F.UPF
Mg  24.305   mg_lda_v1.4.uspp.F.UPF
Pb  207.20   pb_lda_v1.uspp.F.UPF
W   183.84   w_lda_v1.2.uspp.F.UPF

CELL_PARAMETERS (angstrom)
        8.0060000000         0.0000000000         0.0000000000
        0.0000000000         8.0060000000         0.0000000000
        0.0000000000         0.0000000000         8.0060000000

ATOMIC_POSITIONS (crystal)
Pb            0.0513257716        0.0557220099        0.0173768177
Pb            0.0375469189       -0.0089576418        0.5017620715
Pb            0.0221550624        0.4773224628        0.0026538835
Pb            0.0081540479        0.5501828068        0.5217901333
Pb            0.5213593556        0.0296932683        0.0366675520
Pb            0.5260092915       -0.0116815418        0.5029847675
Pb            0.5348248116        0.4949690288        0.0100883265
Pb            0.5443659342        0.5424904840        0.5234614123
Mg            0.2679450375        0.2672836600        0.2779818882
Mg            0.2654632502        0.7657607146        0.7714555186
Mg            0.7661499660        0.2612432485        0.7636459512
Mg            0.7659483901        0.7639267166        0.2616802725
W             0.2651412226        0.2684945335        0.7490545046
W             0.2593404259        0.7554543147        0.2572700545
W             0.7649087642        0.2638062385        0.2771624637
W             0.7628686746        0.7707573707        0.7800959223
O             0.2878706875        0.2759880532        0.5250565562
O             0.2757826916        0.7872298840        0.0290258542
O             0.2357954451        0.7520404872        0.5135245678
O             0.7933937726        0.2624159890        0.0277061247
O             0.7244281739        0.2660129417        0.5080993504
O             0.7375589742        0.7624228404        1.0082064977
O             0.7714026326        0.7486327667        0.5235919623
O             0.2608935407        1.0061296987        0.2880965128
O             0.2346133791        0.0296683834        0.7552686322
O             0.2577100679        0.5227990859        0.2509385500
O             0.2780492854        0.4981544553        0.8031126369
O             0.7395160260        0.0229131506        0.2751812539
O             0.7751926101        1.0014987313        0.7612554990
O             0.7530150258        0.5013929287        0.2692590641
O             0.7318151888        0.5199986602        0.7705489644
O             0.9984395789        0.2532692010        0.2942076975
O             0.0244984612        0.2939069448        0.7491335825
O             0.0219874204        0.7684297354        0.2681587480
O             0.9966340586        0.7310332775        0.7712710919
O             0.5185524974        0.2635655000        0.2215897902
O             0.4898543898        0.2472301924        0.8202564178
O             0.4972848434        0.7651797597        0.2983444074
O             0.5226890848        0.7762456071        0.7378379709

K_POINTS {automatic}
 4 4 4  0 0 0
