&CONTROL
 calculation = 'scf'
 title = 'pmw'
 verbosity = 'high'
 wf_collect = .true
 prefix = 'pmw'
 pseudo_dir = '/home/sck/shafiro1/PSP/QE/lda/'
/

&SYSTEM
 ibrav = 0
 nat = 40
 ntyp = 4
 ecutrho = 400
 ecutwfc  = 50
 nbnd = 180
 occupations  =  'fixed'
 degauss  = 0.01
 smearing  = 'methfessel-paxton'
/

&ELECTRONS
 mixing_mode='local-TF'
 electron_maxstep  = 300
 conv_thr  = 1D-10
 diagonalization = 'david'
/

[ &IONS
 ion_dynamics  = 'bfgs'
 / ]

[ &CELL
 cell_dynamics  = 'bfgs'
 !cell_dofree = 'xyz'
 cell_dofree = 'shape'
 /]

ATOMIC_SPECIES
O   15.990   o_lda_v1.2.uspp.F.UPF
Mg  24.305   mg_lda_v1.4.uspp.F.UPF
Pb  207.20   pb_lda_v1.uspp.F.UPF
W   183.84   w_lda_v1.2.uspp.F.UPF

CELL_PARAMETERS (angstrom)
        8.0060000000         0.0000000000         0.0000000000
        0.0000000000         8.0060000000         0.0000000000
        0.0000000000         0.0000000000         8.0060000000

ATOMIC_POSITIONS (crystal)
Pb            0.0132655550        0.0060427910        0.0007406710
Pb            0.0148722080        0.0000146160        0.5070895750
Pb            0.0148600190        0.5000094410        0.0071411240
Pb            0.0133125030        0.5060318370        0.5006800420
Pb            0.5148719390        0.0231193070        0.0301299190
Pb            0.5132971110        0.0294359330        0.5242460230
Pb            0.5132941460        0.5294419570        0.0241523990
Pb            0.5148478980        0.5231295240        0.5301422840
Mg            0.2642936540        0.2646342690        0.2654296700
Mg            0.2642779090        0.7646430190        0.7654322290
Mg            0.7642931210        0.2646759140        0.7654411470
Mg            0.7642830910        0.7646679930        0.2654448210
W             0.2642773140        0.2646866040        0.7654509710
W             0.2642962030        0.7646887530        0.2654512760
W             0.7642972950        0.2646006640        0.2654238030
W             0.7643171370        0.7646040000        0.7654097420
O             0.2362700095        0.2439359233        1.0041795009
O             0.2926698068        0.2853563448        0.5265475806
O             0.2926760090        0.7853282777        0.0265526112
O             0.2362773744        0.7439221824        0.5041831851
O             0.7950867222        0.2416836677        0.0266803409
O             0.7338209754        0.2878435331        0.5041349268
O             0.7338219055        0.7878557733        1.0041372170
O             0.7950712832        0.7416816318        0.5266818274
O             0.2950498675        1.0033563689        0.2883403992
O             0.2338334359        0.0259054679        0.7421592976
O             0.2337837317        0.5259014021        0.2421852801
O             0.2950763688        0.5033614236        0.7883364509
O             0.7362767296        0.0258796736        0.2860631869
O             0.7926437856        1.0035163584        0.7446531631
O             0.7926840228        0.5035102824        0.2446623130
O             0.7362591070        0.5258837116        0.7860796603
O             1.0024908129        0.2423055765        0.2985381452
O             0.0262403219        0.2976336420        0.7428850705
O             0.0262346185        0.7976481171        0.2428939436
O             1.0024837935        0.7423260061        0.7985382199
O             0.5262475738        0.2871421776        0.2323324502
O             0.5024860459        0.2314447881        0.7877166643
O             0.5024797753        0.7314426092        0.2877199440
O             0.5262384288        0.7871387748        0.7323441837


K_POINTS {automatic}
 4 4 4  0 0 0
